28 28
22
3 3   17 25
3 4   3 24
3 5   6 23
3 6   17 0 
3 7   0 0 
3 8   3 16
3 9   17 6 
3 10  17 15
3 11  14 17
3 16  3 0 
3 17  14 0 
3 21  0 7 
3 23  6 0 
4 3   20 25
4 4   20 0 
4 5   24 23
4 8   20 17
4 13  20 4 
4 23  24 0 
5 6   9 13
5 9   9 19
5 13  9 0 
